experiment/data/hgs-res/Vrp-Set-X-n139/Vrp-Set-X-n139-hgs/0.hgs1.vrp
NAME : 0
COMMENT : CVRP Instance
TYPE : CVRP
DIMENSION : 139
EDGE_WEIGHT_TYPE : EUC_2D
CAPACITY : 106
NODE_COORD_SECTION
1	500.0	500.0
2	645.0	7.0
3	720.0	867.0
4	513.0	499.0
5	208.0	766.0
6	976.0	884.0
7	991.0	864.0
8	596.0	532.0
9	765.0	632.0
10	270.0	818.0
11	223.0	552.0
12	871.0	193.0
13	825.0	816.0
14	128.0	518.0
15	802.0	281.0
16	786.0	635.0
17	435.0	675.0
18	976.0	204.0
19	563.0	43.0
20	870.0	774.0
21	348.0	458.0
22	566.0	113.0
23	295.0	969.0
24	229.0	790.0
25	515.0	805.0
26	482.0	998.0
27	241.0	830.0
28	47.0	633.0
29	594.0	244.0
30	635.0	626.0
31	597.0	538.0
32	86.0	516.0
33	444.0	697.0
34	763.0	281.0
35	12.0	649.0
36	187.0	417.0
37	630.0	975.0
38	934.0	263.0
39	88.0	855.0
40	768.0	582.0
41	916.0	277.0
42	40.0	387.0
43	881.0	490.0
44	325.0	20.0
45	771.0	700.0
46	308.0	482.0
47	397.0	30.0
48	934.0	7.0
49	869.0	723.0
50	788.0	896.0
51	100.0	591.0
52	746.0	587.0
53	584.0	721.0
54	859.0	990.0
55	403.0	428.0
56	493.0	63.0
57	496.0	458.0
58	728.0	641.0
59	174.0	440.0
60	986.0	511.0
61	887.0	589.0
62	931.0	743.0
63	234.0	663.0
64	608.0	268.0
65	239.0	159.0
66	832.0	704.0
67	857.0	776.0
68	828.0	438.0
69	744.0	105.0
70	122.0	949.0
71	270.0	596.0
72	687.0	391.0
73	790.0	753.0
74	323.0	417.0
75	152.0	585.0
76	308.0	261.0
77	472.0	319.0
78	282.0	64.0
79	138.0	342.0
80	391.0	452.0
81	87.0	413.0
82	676.0	362.0
83	314.0	108.0
84	713.0	127.0
85	638.0	532.0
86	507.0	797.0
87	720.0	264.0
88	630.0	720.0
89	326.0	566.0
90	610.0	371.0
91	847.0	833.0
92	576.0	429.0
93	58.0	295.0
94	145.0	103.0
95	141.0	976.0
96	564.0	716.0
97	946.0	889.0
98	100.0	526.0
99	503.0	496.0
100	684.0	811.0
101	800.0	409.0
102	794.0	190.0
103	784.0	339.0
104	603.0	208.0
105	637.0	306.0
106	369.0	159.0
107	288.0	88.0
108	70.0	168.0
109	177.0	924.0
110	300.0	515.0
111	275.0	468.0
112	408.0	217.0
113	343.0	995.0
114	889.0	853.0
115	455.0	846.0
116	20.0	645.0
117	760.0	141.0
118	763.0	785.0
119	494.0	727.0
120	889.0	11.0
121	254.0	378.0
122	381.0	438.0
123	508.0	257.0
124	70.0	637.0
125	361.0	611.0
126	529.0	957.0
127	570.0	727.0
128	204.0	110.0
129	813.0	135.0
130	820.0	999.0
131	201.0	62.0
132	5.0	787.0
133	48.0	135.0
134	196.0	237.0
135	881.0	333.0
136	767.0	284.0
137	709.0	189.0
138	427.0	864.0
139	538.0	248.0
DEMAND_SECTION
1	0
2	10
3	10
4	5
5	9
6	8
7	5
8	5
9	8
10	6
11	8
12	10
13	9
14	9
15	8
16	9
17	5
18	10
19	7
20	6
21	9
22	10
23	6
24	10
25	5
26	8
27	6
28	8
29	5
30	6
31	5
32	7
33	10
34	9
35	7
36	5
37	9
38	6
39	8
40	9
41	5
42	9
43	9
44	5
45	5
46	6
47	7
48	6
49	9
50	5
51	8
52	9
53	8
54	8
55	7
56	9
57	9
58	7
59	10
60	6
61	8
62	9
63	9
64	5
65	6
66	10
67	10
68	8
69	5
70	7
71	5
72	9
73	5
74	5
75	9
76	10
77	9
78	6
79	10
80	8
81	10
82	8
83	8
84	6
85	9
86	5
87	6
88	7
89	8
90	9
91	7
92	7
93	5
94	8
95	8
96	9
97	6
98	9
99	10
100	7
101	5
102	9
103	5
104	10
105	8
106	8
107	9
108	5
109	6
110	8
111	10
112	9
113	9
114	5
115	8
116	5
117	10
118	6
119	9
120	9
121	5
122	10
123	6
124	8
125	10
126	8
127	5
128	7
129	8
130	8
131	7
132	9
133	5
134	5
135	8
136	8
137	6
138	6
139	10
DEPOT_SECTION
1
-1
EOF
